/*
DATA SET 5: 
3 esami, 100 studenti, 1 aula, 2 giorni. 
*/
ESAMI = {AI,IC,CN};
S = 100;
A = 1;
G = 2;

durata = [1,3,4];
capienza = [99];

prenotazioni = [|1,0,0
                |1,0,1
                |1,0,1
                |1,0,1
                |1,0,1
                |1,0,0
                |1,0,1
                |1,0,1
                |1,0,1
                |1,0,1
                |1,0,0
                |1,0,1
                |1,0,1
                |1,0,1
                |1,0,1
                |1,0,0
                |1,0,1
                |1,0,1
                |1,0,1
                |1,0,1
                |1,0,0
                |1,0,1
                |1,0,1
                |1,0,1
                |1,0,1
                |1,0,0
                |1,0,1
                |1,0,1
                |1,0,1
                |1,0,1
                |1,0,0
                |1,0,1
                |1,0,1
                |1,0,1
                |1,0,1
                |1,0,0
                |1,0,1
                |1,0,1
                |1,0,1
                |1,0,1
                |1,0,0
                |1,0,1
                |1,0,1
                |1,0,1
                |1,0,1
                |1,0,0
                |1,0,1
                |1,0,1
                |1,0,1
                |1,0,1
                |1,0,0
                |1,0,1
                |1,0,1
                |1,0,1
                |1,0,1
                |1,0,0
                |1,0,1
                |1,0,1
                |1,0,1
                |1,0,1
                |1,0,0
                |1,0,1
                |1,0,1
                |1,0,1
                |1,0,1
                |1,0,0
                |1,0,1
                |1,0,1
                |1,0,1
                |1,0,1
                |1,0,0
                |1,0,1
                |1,0,1
                |1,0,1
                |1,0,1
                |1,0,0
                |1,0,1
                |1,0,1
                |1,0,1
                |1,0,1
                |1,0,0
                |1,0,1
                |1,0,1
                |1,0,1
                |1,0,1
                |1,0,0
                |1,0,1
                |1,0,1
                |1,0,1
                |1,0,1
                |1,0,0
                |1,0,1
                |1,0,1
                |1,0,1
                |1,0,1
                |1,0,0
                |1,0,1
                |1,0,1
                |1,0,1
                |1,0,1|];